0 18 0
3 11 4
6 0 8
11 27 5
13 39 2
18 13 1
20 6 7
27 20 6
39 3 3
next
0 11 34 7
0 11 34 8
0 16 1 0
0 16 22 8
0 22 35 6
0 29 32 8
0 34 47 7
0 40 28 7
0 51 23 6
0 58 36 6
0 61 29 5
0 62 45 4
0 63 24 4
0 72 4 4
0 77 4 5
0 77 5 3
0 82 10 3
0 95 33 0
0 98 40 1
0 99 7 6
0 103 21 5
0 110 8 1
0 110 31 1
0 116 26 5
0 119 46 2
0 128 15 1
0 128 15 2
0 128 38 1
1 1 9 8
1 7 48 7
1 11 34 8
1 16 22 0
1 22 2 6
1 29 32 7
1 29 32 8
1 34 19 7
1 38 12 7
1 38 12 8
1 51 23 6
1 57 43 6
1 58 36 6
1 63 44 4
1 72 4 4
1 72 25 5
1 77 17 3
1 77 37 5
1 87 16 4
1 99 7 6
1 103 42 5
1 110 41 1
1 112 30 5
1 119 46 2
1 128 14 1
1 128 15 2
